proyfinal/src/viki/013/experimentInOfficeAgust.take6.output/5bf50b5d-871f-4b90-9839-a4b40004df3e.als.dat
{'cnf.clauses': '118081',
 'cnf.totvars': '69608',
 'conflict literals': '175',
 'conflicts': '36',
 'decisions': '2543',
 'memused.mb': '18.17',
 'outcome': 'UNSAT',
 'propagations': '70759',
 'restarts': '1',
 'solver.msecs': 38,
 'task.msecs': 112}
