proyfinal/src/viki/013/experimentInOfficeAgust.take6.output/5bf50b5d-871f-4b90-9839-a4b40004df3e.als.out
Reading from standard input... Use '--help' for help.
============================[ Problem Statistics ]=============================
|                                                                             |
|  Number of variables:         69608                                         |
|  Number of clauses:          118081                                         |
|  Parse time:                   0.03 s                                       |
|                                                                             |
============================[ Search Statistics ]==============================
| Conflicts |          ORIGINAL         |          LEARNT          | Progress |
|           |    Vars  Clauses Literals |    Limit  Clauses Lit/Cl |          |
===============================================================================
===============================================================================
restarts              : 1
conflicts             : 36             (933 /sec)
decisions             : 2543           (0.00 % random) (65900 /sec)
propagations          : 70759          (1833657 /sec)
conflict literals     : 175            (18.60 % deleted)
Memory used           : 18.17 MB
CPU time              : 0.038589 s

UNSATISFIABLE
